DeviceStudio auto-generated KPOINTS file
60
Line-mode
reciprocal
0.5 0 0 ! M
0 0 0 ! G
0 0 0 ! G
0.333333 0.333333 0 ! K
0.333333 0.333333 0 ! K
0.5 0 0 ! M
